c generated by sgen
p cnf 57 124
-2 -3 -4 0
-1 -3 -4 0
-1 -2 -4 0
-1 -2 -3 0
-6 -7 -8 0
-5 -7 -8 0
-5 -6 -8 0
-5 -6 -7 0
-10 -11 -12 0
-9 -11 -12 0
-9 -10 -12 0
-9 -10 -11 0
-14 -15 -16 0
-13 -15 -16 0
-13 -14 -16 0
-13 -14 -15 0
-18 -19 -20 0
-17 -19 -20 0
-17 -18 -20 0
-17 -18 -19 0
-22 -23 -24 0
-21 -23 -24 0
-21 -22 -24 0
-21 -22 -23 0
-26 -27 -28 0
-25 -27 -28 0
-25 -26 -28 0
-25 -26 -27 0
-30 -31 -32 0
-29 -31 -32 0
-29 -30 -32 0
-29 -30 -31 0
-34 -35 -36 0
-33 -35 -36 0
-33 -34 -36 0
-33 -34 -35 0
-38 -39 -40 0
-37 -39 -40 0
-37 -38 -40 0
-37 -38 -39 0
-42 -43 -44 0
-41 -43 -44 0
-41 -42 -44 0
-41 -42 -43 0
-46 -47 -48 0
-45 -47 -48 0
-45 -46 -48 0
-45 -46 -47 0
-50 -51 -52 0
-49 -51 -52 0
-49 -50 -52 0
-49 -50 -51 0
-53 -54 -55 0
-53 -54 -56 0
-53 -54 -57 0
-53 -55 -56 0
-53 -55 -57 0
-53 -56 -57 0
-54 -55 -56 0
-54 -55 -57 0
-54 -56 -57 0
-55 -56 -57 0
19 56 12 0
28 56 12 0
28 19 12 0
28 19 56 0
48 41 14 0
9 41 14 0
9 48 14 0
9 48 41 0
26 8 36 0
52 8 36 0
52 26 36 0
52 26 8 0
29 43 22 0
25 43 22 0
25 29 22 0
25 29 43 0
21 53 15 0
33 53 15 0
33 21 15 0
33 21 53 0
50 23 3 0
10 23 3 0
10 50 3 0
10 50 23 0
34 32 1 0
18 32 1 0
18 34 1 0
18 34 32 0
27 47 2 0
40 47 2 0
40 27 2 0
40 27 47 0
51 37 20 0
13 37 20 0
13 51 20 0
13 51 37 0
4 44 5 0
54 44 5 0
54 4 5 0
54 4 44 0
46 7 24 0
17 7 24 0
17 46 24 0
17 46 7 0
30 55 45 0
49 55 45 0
49 30 45 0
49 30 55 0
39 57 42 0
35 57 42 0
35 39 42 0
35 39 57 0
11 6 16 0
11 6 31 0
11 6 38 0
11 16 31 0
11 16 38 0
11 31 38 0
6 16 31 0
6 16 38 0
6 31 38 0
16 31 38 0
